
Log started (V11.0.0) Mon Apr 14 00:36:17 2008

Tried aggregator 1 time.
Reduced MIP has 520 rows, 10001 columns, and 20020 nonzeros.
Presolve time =    0.08 sec.
Clique table members: 500.
MIP emphasis: balance optimality and feasibility.
MIP search method: dynamic search.
Parallel mode: none, using 1 thread.
Root relaxation solution time =    0.30 sec.

        Nodes                                         Cuts/
   Node  Left     Objective  IInf  Best Integer     Best Node    ItCnt     Gap

*     0+    0                        25147.0000      135.7807      853   99.46%
*     0+    0                          148.0000      135.7807      853    8.26%
      0     0      136.0000    37      148.0000      Fract: 9      870    8.11%
*     0+    0                          147.0000      136.0000      870    7.48%
      0     0      136.0000    38      147.0000     Covers: 1      872    7.48%
*     0+    0                          144.0000      136.0000      872    5.56%
      0     0      136.0000    41      144.0000     Covers: 2      896    5.56%
*     0+    0                          142.0000      136.0000      896    4.23%
      0     2      136.0000    41      142.0000      136.0000      896    4.23%
*    10+   10                          140.0000      136.0000     1245    2.86%
    100    78      138.0000    36      140.0000      136.0000     5156    2.86%
*   170+  116                          139.0000      136.0000     7178    2.16%
    200   142      138.0000    25      139.0000      136.0000     8018    2.16%
    300   188      138.0000    28      139.0000      136.0000    12451    2.16%
    400   267      137.0000    38      139.0000      136.0000    15169    2.16%
    500   324      137.0000    38      139.0000      137.0000    23223    1.44%
    600   323      138.0000    36      139.0000      137.0000    29654    1.44%
*   698+  201                          138.0000      137.0000    37756    0.72%
    700   200      137.0000    36      138.0000      137.0000    38020    0.72%
    800   204      137.0000    35      138.0000      137.0000    44697    0.72%
    900   214      137.0000    48      138.0000      137.0000    54308    0.72%
   1000   290    infeasible            138.0000      137.0000    62160    0.72%
Elapsed time =  38.52 sec. (tree size =  2.45 MB, solutions = 8)
   1100   374      137.0000    56      138.0000      137.0000    69893    0.72%
   1200   440      137.0000    49      138.0000      137.0000    80899    0.72%
   1300   526      137.0000    36      138.0000      137.0000    90964    0.72%
   1400   604      137.0000    58      138.0000      137.0000   100154    0.72%
   1500   684      137.0000    44      138.0000      137.0000   109925    0.72%
   1600   750      137.0000    60      138.0000      137.0000   124636    0.72%
   1700   830      137.0000    58      138.0000      137.0000   135660    0.72%
   1800   900    infeasible            138.0000      137.0000   148750    0.72%
   1900   970      137.0000    93      138.0000      137.0000   165128    0.72%
   2000  1052      137.0000    74      138.0000      137.0000   178344    0.72%
Elapsed time =  87.08 sec. (tree size = 11.81 MB, solutions = 8)
   2100  1128      137.0000    86      138.0000      137.0000   192859    0.72%
   2200  1206      137.0000    58      138.0000      137.0000   206375    0.72%
   2300  1274      137.0000    89      138.0000      137.0000   221324    0.72%
   2400  1330      137.0000    99      138.0000      137.0000   246531    0.72%
   2500  1404      137.0000    90      138.0000      137.0000   264959    0.72%
   2600  1468      137.0000    77      138.0000      137.0000   285128    0.72%
   2700  1548      137.0000    53      138.0000      137.0000   301210    0.72%
   2800  1612      137.0000   109      138.0000      137.0000   317266    0.72%
   2900  1680    infeasible            138.0000      137.0000   335577    0.72%
   3000  1764      137.0000    61      138.0000      137.0000   354891    0.72%
Elapsed time = 210.23 sec. (tree size = 24.61 MB, solutions = 8)
   3100  1826      137.0000    80      138.0000      137.0000   379020    0.72%
   3200  1908      137.0000    56      138.0000      137.0000   391124    0.72%
   3300  1976      137.0000   114      138.0000      137.0000   411516    0.72%
   3400  2036      137.0000   111      138.0000      137.0000   433756    0.72%
   3500  2088      137.0000   116      138.0000      137.0000   469426    0.72%
   3600  2128      137.0000    78      138.0000      137.0000   505666    0.72%
   3700  2216      137.0000    62      138.0000      137.0000   519643    0.72%
   3800  2300    infeasible            138.0000      137.0000   532390    0.72%
*  3898+    1                          137.0000      137.0000   554020    0.00%

Cover cuts applied:  1468
Mixed integer rounding cuts applied:  3
Gomory fractional cuts applied:  10

Solution pool: 9 solutions saved.

MIP - Integer optimal solution:  Objective = 1.3700000000e+002
Solution time =  387.30 sec.  Iterations = 554020  Nodes = 3898


Incumbent solution
Variable Name           Solution Value
Cmax                        137.000000
X_1_2                         1.000000
X_2_14                        1.000000
X_3_16                        1.000000
X_4_8                         1.000000
X_5_6                         1.000000
X_6_9                         1.000000
X_7_13                        1.000000
X_8_9                         1.000000
X_9_17                        1.000000
X_10_5                        1.000000
X_11_14                       1.000000
X_12_4                        1.000000
X_13_19                       1.000000
X_14_16                       1.000000
X_15_1                        1.000000
X_16_3                        1.000000
X_17_1                        1.000000
X_18_4                        1.000000
X_19_18                       1.000000
X_20_12                       1.000000
X_21_12                       1.000000
X_22_6                        1.000000
X_23_7                        1.000000
X_24_9                        1.000000
X_25_20                       1.000000
X_26_12                       1.000000
X_27_4                        1.000000
X_28_10                       1.000000
X_29_19                       1.000000
X_30_1                        1.000000
X_31_3                        1.000000
X_32_18                       1.000000
X_33_1                        1.000000
X_34_20                       1.000000
X_35_2                        1.000000
X_36_9                        1.000000
X_37_12                       1.000000
X_38_1                        1.000000
X_39_14                       1.000000
X_40_13                       1.000000
X_41_9                        1.000000
X_42_8                        1.000000
X_43_16                       1.000000
X_44_3                        1.000000
X_45_20                       1.000000
X_46_17                       1.000000
X_47_7                        1.000000
X_48_18                       1.000000
X_49_2                        1.000000
X_50_7                        1.000000
X_51_2                        1.000000
X_52_6                        1.000000
X_53_3                        1.000000
X_54_15                       1.000000
X_55_5                        1.000000
X_56_4                        1.000000
X_57_4                        1.000000
X_58_7                        1.000000
X_59_7                        1.000000
X_60_19                       1.000000
X_61_16                       1.000000
X_62_7                        1.000000
X_63_5                        1.000000
X_64_16                       1.000000
X_65_17                       1.000000
X_66_5                        1.000000
X_67_4                        1.000000
X_68_8                        1.000000
X_69_15                       1.000000
X_70_8                        1.000000
X_71_15                       1.000000
X_72_11                       1.000000
X_73_13                       1.000000
X_74_12                       1.000000
X_75_5                        1.000000
X_76_12                       1.000000
X_77_15                       1.000000
X_78_4                        1.000000
X_79_2                        1.000000
X_80_12                       1.000000
X_81_9                        1.000000
X_82_3                        1.000000
X_83_1                        1.000000
X_84_4                        1.000000
X_85_8                        1.000000
X_86_14                       1.000000
X_87_12                       1.000000
X_88_17                       1.000000
X_89_12                       1.000000
X_90_3                        1.000000
X_91_11                       1.000000
X_92_17                       1.000000
X_93_2                        1.000000
X_94_12                       1.000000
X_95_3                        1.000000
X_96_8                        1.000000
X_97_16                       1.000000
X_98_2                        1.000000
X_99_4                        1.000000
X_100_14                      1.000000
X_101_12                      1.000000
X_102_20                      1.000000
X_103_10                      1.000000
X_104_16                      1.000000
X_105_5                       1.000000
X_106_9                       1.000000
X_107_14                      1.000000
X_108_3                       1.000000
X_109_7                       1.000000
X_110_9                       1.000000
X_111_6                       1.000000
X_112_16                      1.000000
X_113_6                       1.000000
X_114_18                      1.000000
X_115_16                      1.000000
X_116_2                       1.000000
X_117_16                      1.000000
X_118_15                      1.000000
X_119_13                      1.000000
X_120_2                       1.000000
X_121_16                      1.000000
X_122_8                       1.000000
X_123_1                       1.000000
X_124_9                       1.000000
X_125_18                      1.000000
X_126_16                      1.000000
X_127_10                      1.000000
X_128_19                      1.000000
X_129_7                       1.000000
X_130_1                       1.000000
X_131_7                       1.000000
X_132_19                      1.000000
X_133_11                      1.000000
X_134_20                      1.000000
X_135_9                       1.000000
X_136_14                      1.000000
X_137_19                      1.000000
X_138_8                       1.000000
X_139_18                      1.000000
X_140_8                       1.000000
X_141_3                       1.000000
X_142_12                      1.000000
X_143_1                       1.000000
X_144_2                       1.000000
X_145_8                       1.000000
X_146_1                       1.000000
X_147_12                      1.000000
X_148_11                      1.000000
X_149_7                       1.000000
X_150_14                      1.000000
X_151_19                      1.000000
X_152_8                       1.000000
X_153_1                       1.000000
X_154_9                       1.000000
X_155_2                       1.000000
X_156_16                      1.000000
X_157_12                      1.000000
X_158_15                      1.000000
X_159_19                      1.000000
X_160_19                      1.000000
X_161_8                       1.000000
X_162_14                      1.000000
X_163_19                      1.000000
X_164_14                      1.000000
X_165_1                       1.000000
X_166_19                      1.000000
X_167_18                      1.000000
X_168_3                       1.000000
X_169_6                       1.000000
X_170_12                      1.000000
X_171_4                       1.000000
X_172_10                      1.000000
X_173_16                      1.000000
X_174_18                      1.000000
X_175_15                      1.000000
X_176_8                       1.000000
X_177_15                      1.000000
X_178_6                       1.000000
X_179_7                       1.000000
X_180_17                      1.000000
X_181_19                      1.000000
X_182_19                      1.000000
X_183_17                      1.000000
X_184_16                      1.000000
X_185_1                       1.000000
X_186_2                       1.000000
X_187_15                      1.000000
X_188_8                       1.000000
X_189_17                      1.000000
X_190_19                      1.000000
X_191_20                      1.000000
X_192_12                      1.000000
X_193_7                       1.000000
X_194_2                       1.000000
X_195_4                       1.000000
X_196_17                      1.000000
X_197_7                       1.000000
X_198_14                      1.000000
X_199_17                      1.000000
X_200_3                       1.000000
X_201_15                      1.000000
X_202_19                      1.000000
X_203_2                       1.000000
X_204_5                       1.000000
X_205_7                       1.000000
X_206_15                      1.000000
X_207_17                      1.000000
X_208_15                      1.000000
X_209_12                      1.000000
X_210_16                      1.000000
X_211_1                       1.000000
X_212_7                       1.000000
X_213_10                      1.000000
X_214_13                      1.000000
X_215_17                      1.000000
X_216_19                      1.000000
X_217_10                      1.000000
X_218_6                       1.000000
X_219_17                      1.000000
X_220_19                      1.000000
X_221_9                       1.000000
X_222_9                       1.000000
X_223_15                      1.000000
X_224_14                      1.000000
X_225_5                       1.000000
X_226_10                      1.000000
X_227_6                       1.000000
X_228_5                       1.000000
X_229_12                      1.000000
X_230_11                      1.000000
X_231_14                      1.000000
X_232_1                       1.000000
X_233_12                      1.000000
X_234_5                       1.000000
X_235_8                       1.000000
X_236_6                       1.000000
X_237_4                       1.000000
X_238_5                       1.000000
X_239_14                      1.000000
X_240_2                       1.000000
X_241_2                       1.000000
X_242_8                       1.000000
X_243_16                      1.000000
X_244_16                      1.000000
X_245_14                      1.000000
X_246_6                       1.000000
X_247_13                      1.000000
X_248_11                      1.000000
X_249_14                      1.000000
X_250_4                       1.000000
X_251_20                      1.000000
X_252_11                      1.000000
X_253_17                      1.000000
X_254_6                       1.000000
X_255_2                       1.000000
X_256_18                      1.000000
X_257_9                       1.000000
X_258_17                      1.000000
X_259_15                      1.000000
X_260_15                      1.000000
X_261_20                      1.000000
X_262_6                       1.000000
X_263_14                      1.000000
X_264_14                      1.000000
X_265_8                       1.000000
X_266_5                       1.000000
X_267_20                      1.000000
X_268_16                      1.000000
X_269_10                      1.000000
X_270_17                      1.000000
X_271_3                       1.000000
X_272_9                       1.000000
X_273_3                       1.000000
X_274_5                       1.000000
X_275_9                       1.000000
X_276_17                      1.000000
X_277_19                      1.000000
X_278_4                       1.000000
X_279_13                      1.000000
X_280_2                       1.000000
X_281_17                      1.000000
X_282_6                       1.000000
X_283_18                      1.000000
X_284_10                      1.000000
X_285_20                      1.000000
X_286_10                      1.000000
X_287_16                      1.000000
X_288_4                       1.000000
X_289_9                       1.000000
X_290_5                       1.000000
X_291_20                      1.000000
X_292_1                       1.000000
X_293_14                      1.000000
X_294_3                       1.000000
X_295_15                      1.000000
X_296_13                      1.000000
X_297_12                      1.000000
X_298_12                      1.000000
X_299_11                      1.000000
X_300_6                       1.000000
X_301_2                       1.000000
X_302_14                      1.000000
X_303_6                       1.000000
X_304_7                       1.000000
X_305_18                      1.000000
X_306_13                      1.000000
X_307_11                      1.000000
X_308_12                      1.000000
X_309_8                       1.000000
X_310_11                      1.000000
X_311_14                      1.000000
X_312_6                       1.000000
X_313_7                       1.000000
X_314_16                      1.000000
X_315_8                       1.000000
X_316_19                      1.000000
X_317_20                      1.000000
X_318_20                      1.000000
X_319_8                       1.000000
X_320_19                      1.000000
X_321_3                       1.000000
X_322_10                      1.000000
X_323_2                       1.000000
X_324_18                      1.000000
X_325_12                      1.000000
X_326_8                       1.000000
X_327_12                      1.000000
X_328_10                      1.000000
X_329_11                      1.000000
X_330_19                      1.000000
X_331_8                       1.000000
X_332_16                      1.000000
X_333_10                      1.000000
X_334_12                      1.000000
X_335_15                      1.000000
X_336_13                      1.000000
X_337_19                      1.000000
X_338_14                      1.000000
X_339_13                      1.000000
X_340_15                      1.000000
X_341_15                      1.000000
X_342_18                      1.000000
X_343_2                       1.000000
X_344_1                       1.000000
X_345_9                       1.000000
X_346_15                      1.000000
X_347_7                       1.000000
X_348_3                       1.000000
X_349_12                      1.000000
X_350_17                      1.000000
X_351_20                      1.000000
X_352_13                      1.000000
X_353_19                      1.000000
X_354_7                       1.000000
X_355_12                      1.000000
X_356_18                      1.000000
X_357_1                       1.000000
X_358_16                      1.000000
X_359_9                       1.000000
X_360_15                      1.000000
X_361_10                      1.000000
X_362_2                       1.000000
X_363_13                      1.000000
X_364_7                       1.000000
X_365_5                       1.000000
X_366_3                       1.000000
X_367_3                       1.000000
X_368_19                      1.000000
X_369_1                       1.000000
X_370_8                       1.000000
X_371_11                      1.000000
X_372_5                       1.000000
X_373_8                       1.000000
X_374_12                      1.000000
X_375_9                       1.000000
X_376_4                       1.000000
X_377_16                      1.000000
X_378_6                       1.000000
X_379_19                      1.000000
X_380_11                      1.000000
X_381_9                       1.000000
X_382_10                      1.000000
X_383_7                       1.000000
X_384_8                       1.000000
X_385_5                       1.000000
X_386_8                       1.000000
X_387_11                      1.000000
X_388_13                      1.000000
X_389_2                       1.000000
X_390_12                      1.000000
X_391_5                       1.000000
X_392_1                       1.000000
X_393_3                       1.000000
X_394_11                      1.000000
X_395_17                      1.000000
X_396_3                       1.000000
X_397_17                      1.000000
X_398_9                       1.000000
X_399_14                      1.000000
X_400_20                      1.000000
X_401_10                      1.000000
X_402_8                       1.000000
X_403_11                      1.000000
X_404_7                       1.000000
X_405_9                       1.000000
X_406_18                      1.000000
X_407_2                       1.000000
X_408_1                       1.000000
X_409_3                       1.000000
X_410_1                       1.000000
X_411_2                       1.000000
X_412_2                       1.000000
X_413_20                      1.000000
X_414_7                       1.000000
X_415_20                      1.000000
X_416_8                       1.000000
X_417_19                      1.000000
X_418_12                      1.000000
X_419_18                      1.000000
X_420_9                       1.000000
X_421_13                      1.000000
X_422_19                      1.000000
X_423_2                       1.000000
X_424_15                      1.000000
X_425_14                      1.000000
X_426_7                       1.000000
X_427_15                      1.000000
X_428_11                      1.000000
X_429_17                      1.000000
X_430_14                      1.000000
X_431_15                      1.000000
X_432_20                      1.000000
X_433_16                      1.000000
X_434_17                      1.000000
X_435_4                       1.000000
X_436_8                       1.000000
X_437_15                      1.000000
X_438_2                       1.000000
X_439_4                       1.000000
X_440_4                       1.000000
X_441_9                       1.000000
X_442_10                      1.000000
X_443_20                      1.000000
X_444_18                      1.000000
X_445_6                       1.000000
X_446_13                      1.000000
X_447_4                       1.000000
X_448_20                      1.000000
X_449_13                      1.000000
X_450_15                      1.000000
X_451_14                      1.000000
X_452_13                      1.000000
X_453_18                      1.000000
X_454_5                       1.000000
X_455_9                       1.000000
X_456_11                      1.000000
X_457_5                       1.000000
X_458_8                       1.000000
X_459_19                      1.000000
X_460_15                      1.000000
X_461_18                      1.000000
X_462_5                       1.000000
X_463_14                      1.000000
X_464_11                      1.000000
X_465_15                      1.000000
X_466_1                       1.000000
X_467_4                       1.000000
X_468_20                      1.000000
X_469_13                      1.000000
X_470_1                       1.000000
X_471_11                      1.000000
X_472_1                       1.000000
X_473_2                       1.000000
X_474_11                      1.000000
X_475_7                       1.000000
X_476_20                      1.000000
X_477_2                       1.000000
X_478_12                      1.000000
X_479_10                      1.000000
X_480_11                      1.000000
X_481_11                      1.000000
X_482_10                      1.000000
X_483_13                      1.000000
X_484_8                       1.000000
X_485_8                       1.000000
X_486_11                      1.000000
X_487_20                      1.000000
X_488_9                       1.000000
X_489_7                       1.000000
X_490_3                       1.000000
X_491_9                       1.000000
X_492_7                       1.000000
X_493_13                      1.000000
X_494_14                      1.000000
X_495_14                      1.000000
X_496_4                       1.000000
X_497_4                       1.000000
X_498_16                      1.000000
X_499_13                      1.000000
X_500_18                      1.000000
All other variables in the range 1-10001 are 0.
